106414.0
10,23,25,30,32,37,38,48,53,60,121,134,146,215,216,249,273,281,347,362,373,379,382,419,421,426,446,469,473,476,480,493,494,573,599,603,610,612,657,703,708,732,736,737,743,751,770,775,786,822,824,830,836,845,855,886,914,937,945,967,986,987,989,1003,1031,1034,1042,1043,1048,1057,1096,1099,1114,1117,1137,1138,1143,1158,1239,1246,1248,1298,1302,1322,1333,1343,1344,1353,1361,1394,1419,1433,1441,1457,1463,1466,1472,1473,1475,1483,1485,1497,1499,1507,1532,1544,1548,1549,1567,1591,1604,1615,1617,1630,1638,1654,1664,1666,1672,1690,1692,1696,1716,1724,1729,1731,1732,1805,1861,1864,1873,1890,1900,1904,1915,1953,1975,1989,1997
